Cars = 1..200;
Options = 1..5;
Classes = 1..18;
sequenceMinCapacity = [0, 0, 0, 0, 0];
sequenceMaxCapacity = [1, 2, 1, 2, 1];
sequenceSize = [2, 3, 3, 5, 5];
numOrdered = [30, 1, 7, 4, 1, 1, 2, 3, 7, 3, 8, 73, 2, 3, 33, 17, 1, 4];
classHasOption = [|false, false, false, false,  true
                  |false,  true,  true, false,  true
                  |false,  true, false,  true, false
                  | true, false,  true, false, false
                  |false, false, false,  true,  true
                  |false,  true,  true, false, false
                  |false, false,  true, false,  true
                  | true,  true,  true, false, false
                  | true,  true, false, false, false
                  |false,  true,  true,  true, false
                  |false, false,  true,  true, false
                  |false,  true, false, false, false
                  | true, false, false,  true, false
                  |false,  true, false, false,  true
                  | true, false, false, false, false
                  |false, false, false,  true, false
                  | true, false,  true,  true, false
                  |false, false,  true, false, false|];
optionOrdering = [5, 1, 2, 3, 4];
